Nb of jobs, Nb of Machines, Time seed, Machine seed, Upper bound, Lower bound
8,8,-1,-1,-1,-1
Times
35,44,12,69,46,4,2,90
39,35,47,88,65,45,64,8
9,62,93,29,47,33,50,24
70,62,37,61,55,82,44,39
31,65,62,97,59,28,4,95
22,63,14,81,45,65,95,13
47,84,4,71,17,62,38,34
70,90,64,85,26,72,48,1
Machines
6,4,3,7,5,2,1,8
6,3,7,2,8,4,5,1
6,3,7,1,2,4,8,5
8,4,2,5,3,1,6,7
7,3,2,5,6,1,8,4
2,8,4,7,3,1,6,5
5,8,2,7,1,6,3,4
4,3,7,1,6,8,2,5
